(set-option :produce-models true)
(set-logic QF_LRA)
(set-info :notes | Strip-packing problem.|)
(declare-fun x0 () Real)
(declare-fun y0 () Real)
(declare-fun x1 () Real)
(declare-fun y1 () Real)
(declare-fun x2 () Real)
(declare-fun y2 () Real)
(declare-fun x3 () Real)
(declare-fun y3 () Real)
(declare-fun x4 () Real)
(declare-fun y4 () Real)
(declare-fun x5 () Real)
(declare-fun y5 () Real)
(declare-fun x6 () Real)
(declare-fun y6 () Real)
(declare-fun x7 () Real)
(declare-fun y7 () Real)
(declare-fun x8 () Real)
(declare-fun y8 () Real)
(declare-fun x9 () Real)
(declare-fun y9 () Real)
(declare-fun x10 () Real)
(declare-fun y10 () Real)
(declare-fun x11 () Real)
(declare-fun y11 () Real)
(declare-fun x12 () Real)
(declare-fun y12 () Real)
(declare-fun x13 () Real)
(declare-fun y13 () Real)
(declare-fun x14 () Real)
(declare-fun y14 () Real)
(declare-fun z () Real)
(declare-fun c () Real)
(assert (and (= c z) (and (>= x0 0) 
(and (>= y0 0) 
(and (>= x1 0) 
(and (>= y1 0) 
(and (>= x2 0) 
(and (>= y2 0) 
(and (>= x3 0) 
(and (>= y3 0) 
(and (>= x4 0) 
(and (>= y4 0) 
(and (>= x5 0) 
(and (>= y5 0) 
(and (>= x6 0) 
(and (>= y6 0) 
(and (>= x7 0) 
(and (>= y7 0) 
(and (>= x8 0) 
(and (>= y8 0) 
(and (>= x9 0) 
(and (>= y9 0) 
(and (>= x10 0) 
(and (>= y10 0) 
(and (>= x11 0) 
(and (>= y11 0) 
(and (>= x12 0) 
(and (>= y12 0) 
(and (>= x13 0) 
(and (>= y13 0) 
(and (>= x14 0) 
(and (>= y14 0) 
(and (>= z 0) 
(and (>= c 0) 
(and (<= (+ x0 0.9262853238) z) 
(and (<= 0.9913833282 y0) 
(and (<= y0 1.9364916731) 
(and (<= x0 (- 5.2206704103 0.9262853238)) 
(and (>= x0 0) 
(and (<= (+ x1 0.9545094173) z) 
(and (<= 0.8119747049 y1) 
(and (<= y1 1.9364916731) 
(and (<= x1 (- 5.2206704103 0.9545094173)) 
(and (>= x1 0) 
(and (<= (+ x2 0.4866337733) z) 
(and (<= 0.7002024929 y2) 
(and (<= y2 1.9364916731) 
(and (<= x2 (- 5.2206704103 0.4866337733)) 
(and (>= x2 0) 
(and (<= (+ x3 0.7425120206) z) 
(and (<= 0.6793534341 y3) 
(and (<= y3 1.9364916731) 
(and (<= x3 (- 5.2206704103 0.7425120206)) 
(and (>= x3 0) 
(and (<= (+ x4 0.7453139448) z) 
(and (<= 0.6439075417 y4) 
(and (<= y4 1.9364916731) 
(and (<= x4 (- 5.2206704103 0.7453139448)) 
(and (>= x4 0) 
(and (<= (+ x5 0.7901487555) z) 
(and (<= 0.6146020887 y5) 
(and (<= y5 1.9364916731) 
(and (<= x5 (- 5.2206704103 0.7901487555)) 
(and (>= x5 0) 
(and (<= (+ x6 0.8049396856) z) 
(and (<= 0.6043993329 y6) 
(and (<= y6 1.9364916731) 
(and (<= x6 (- 5.2206704103 0.8049396856)) 
(and (>= x6 0) 
(and (<= (+ x7 0.5761486042) z) 
(and (<= 0.5778227613 y7) 
(and (<= y7 1.9364916731) 
(and (<= x7 (- 5.2206704103 0.5761486042)) 
(and (>= x7 0) 
(and (<= (+ x8 0.2837814833) z) 
(and (<= 0.539827135 y8) 
(and (<= y8 1.9364916731) 
(and (<= x8 (- 5.2206704103 0.2837814833)) 
(and (>= x8 0) 
(and (<= (+ x9 0.3803184338) z) 
(and (<= 0.3800569066 y9) 
(and (<= y9 1.9364916731) 
(and (<= x9 (- 5.2206704103 0.3803184338)) 
(and (>= x9 0) 
(and (<= (+ x10 0.4373192191) z) 
(and (<= 0.354189226 y10) 
(and (<= y10 1.9364916731) 
(and (<= x10 (- 5.2206704103 0.4373192191)) 
(and (>= x10 0) 
(and (<= (+ x11 0.9994732833) z) 
(and (<= 0.2910857136 y11) 
(and (<= y11 1.9364916731) 
(and (<= x11 (- 5.2206704103 0.9994732833)) 
(and (>= x11 0) 
(and (<= (+ x12 0.821701974) z) 
(and (<= 0.1853100134 y12) 
(and (<= y12 1.9364916731) 
(and (<= x12 (- 5.2206704103 0.821701974)) 
(and (>= x12 0) 
(and (<= (+ x13 0.2477224238) z) 
(and (<= 0.1326871634 y13) 
(and (<= y13 1.9364916731) 
(and (<= x13 (- 5.2206704103 0.2477224238)) 
(and (>= x13 0) 
(and (<= (+ x14 0.7059953162) z) 
(and (<= 0.1172269743 y14) 
(and (<= y14 1.9364916731) 
(and (<= x14 (- 5.2206704103 0.7059953162)) 
(and (>= x14 0) 
(and (<= c 5.2206704103) 
(and (or (<= (+ x0 0.9262853238) x1) (or (<= (+ x1 0.9545094173) x0) (or (>= (- y0 0.9913833282) y1) (or (>= (- y1 0.8119747049) y0))))) 
(and (or (<= (+ x0 0.9262853238) x2) (or (<= (+ x2 0.4866337733) x0) (or (>= (- y0 0.9913833282) y2) (or (>= (- y2 0.7002024929) y0))))) 
(and (or (<= (+ x0 0.9262853238) x3) (or (<= (+ x3 0.7425120206) x0) (or (>= (- y0 0.9913833282) y3) (or (>= (- y3 0.6793534341) y0))))) 
(and (or (<= (+ x0 0.9262853238) x4) (or (<= (+ x4 0.7453139448) x0) (or (>= (- y0 0.9913833282) y4) (or (>= (- y4 0.6439075417) y0))))) 
(and (or (<= (+ x0 0.9262853238) x5) (or (<= (+ x5 0.7901487555) x0) (or (>= (- y0 0.9913833282) y5) (or (>= (- y5 0.6146020887) y0))))) 
(and (or (<= (+ x0 0.9262853238) x6) (or (<= (+ x6 0.8049396856) x0) (or (>= (- y0 0.9913833282) y6) (or (>= (- y6 0.6043993329) y0))))) 
(and (or (<= (+ x0 0.9262853238) x7) (or (<= (+ x7 0.5761486042) x0) (or (>= (- y0 0.9913833282) y7) (or (>= (- y7 0.5778227613) y0))))) 
(and (or (<= (+ x0 0.9262853238) x8) (or (<= (+ x8 0.2837814833) x0) (or (>= (- y0 0.9913833282) y8) (or (>= (- y8 0.539827135) y0))))) 
(and (or (<= (+ x0 0.9262853238) x9) (or (<= (+ x9 0.3803184338) x0) (or (>= (- y0 0.9913833282) y9) (or (>= (- y9 0.3800569066) y0))))) 
(and (or (<= (+ x0 0.9262853238) x10) (or (<= (+ x10 0.4373192191) x0) (or (>= (- y0 0.9913833282) y10) (or (>= (- y10 0.354189226) y0))))) 
(and (or (<= (+ x0 0.9262853238) x11) (or (<= (+ x11 0.9994732833) x0) (or (>= (- y0 0.9913833282) y11) (or (>= (- y11 0.2910857136) y0))))) 
(and (or (<= (+ x0 0.9262853238) x12) (or (<= (+ x12 0.821701974) x0) (or (>= (- y0 0.9913833282) y12) (or (>= (- y12 0.1853100134) y0))))) 
(and (or (<= (+ x0 0.9262853238) x13) (or (<= (+ x13 0.2477224238) x0) (or (>= (- y0 0.9913833282) y13) (or (>= (- y13 0.1326871634) y0))))) 
(and (or (<= (+ x0 0.9262853238) x14) (or (<= (+ x14 0.7059953162) x0) (or (>= (- y0 0.9913833282) y14) (or (>= (- y14 0.1172269743) y0))))) 
(and (or (<= (+ x1 0.9545094173) x2) (or (<= (+ x2 0.4866337733) x1) (or (>= (- y1 0.8119747049) y2) (or (>= (- y2 0.7002024929) y1))))) 
(and (or (<= (+ x1 0.9545094173) x3) (or (<= (+ x3 0.7425120206) x1) (or (>= (- y1 0.8119747049) y3) (or (>= (- y3 0.6793534341) y1))))) 
(and (or (<= (+ x1 0.9545094173) x4) (or (<= (+ x4 0.7453139448) x1) (or (>= (- y1 0.8119747049) y4) (or (>= (- y4 0.6439075417) y1))))) 
(and (or (<= (+ x1 0.9545094173) x5) (or (<= (+ x5 0.7901487555) x1) (or (>= (- y1 0.8119747049) y5) (or (>= (- y5 0.6146020887) y1))))) 
(and (or (<= (+ x1 0.9545094173) x6) (or (<= (+ x6 0.8049396856) x1) (or (>= (- y1 0.8119747049) y6) (or (>= (- y6 0.6043993329) y1))))) 
(and (or (<= (+ x1 0.9545094173) x7) (or (<= (+ x7 0.5761486042) x1) (or (>= (- y1 0.8119747049) y7) (or (>= (- y7 0.5778227613) y1))))) 
(and (or (<= (+ x1 0.9545094173) x8) (or (<= (+ x8 0.2837814833) x1) (or (>= (- y1 0.8119747049) y8) (or (>= (- y8 0.539827135) y1))))) 
(and (or (<= (+ x1 0.9545094173) x9) (or (<= (+ x9 0.3803184338) x1) (or (>= (- y1 0.8119747049) y9) (or (>= (- y9 0.3800569066) y1))))) 
(and (or (<= (+ x1 0.9545094173) x10) (or (<= (+ x10 0.4373192191) x1) (or (>= (- y1 0.8119747049) y10) (or (>= (- y10 0.354189226) y1))))) 
(and (or (<= (+ x1 0.9545094173) x11) (or (<= (+ x11 0.9994732833) x1) (or (>= (- y1 0.8119747049) y11) (or (>= (- y11 0.2910857136) y1))))) 
(and (or (<= (+ x1 0.9545094173) x12) (or (<= (+ x12 0.821701974) x1) (or (>= (- y1 0.8119747049) y12) (or (>= (- y12 0.1853100134) y1))))) 
(and (or (<= (+ x1 0.9545094173) x13) (or (<= (+ x13 0.2477224238) x1) (or (>= (- y1 0.8119747049) y13) (or (>= (- y13 0.1326871634) y1))))) 
(and (or (<= (+ x1 0.9545094173) x14) (or (<= (+ x14 0.7059953162) x1) (or (>= (- y1 0.8119747049) y14) (or (>= (- y14 0.1172269743) y1))))) 
(and (or (<= (+ x2 0.4866337733) x3) (or (<= (+ x3 0.7425120206) x2) (or (>= (- y2 0.7002024929) y3) (or (>= (- y3 0.6793534341) y2))))) 
(and (or (<= (+ x2 0.4866337733) x4) (or (<= (+ x4 0.7453139448) x2) (or (>= (- y2 0.7002024929) y4) (or (>= (- y4 0.6439075417) y2))))) 
(and (or (<= (+ x2 0.4866337733) x5) (or (<= (+ x5 0.7901487555) x2) (or (>= (- y2 0.7002024929) y5) (or (>= (- y5 0.6146020887) y2))))) 
(and (or (<= (+ x2 0.4866337733) x6) (or (<= (+ x6 0.8049396856) x2) (or (>= (- y2 0.7002024929) y6) (or (>= (- y6 0.6043993329) y2))))) 
(and (or (<= (+ x2 0.4866337733) x7) (or (<= (+ x7 0.5761486042) x2) (or (>= (- y2 0.7002024929) y7) (or (>= (- y7 0.5778227613) y2))))) 
(and (or (<= (+ x2 0.4866337733) x8) (or (<= (+ x8 0.2837814833) x2) (or (>= (- y2 0.7002024929) y8) (or (>= (- y8 0.539827135) y2))))) 
(and (or (<= (+ x2 0.4866337733) x9) (or (<= (+ x9 0.3803184338) x2) (or (>= (- y2 0.7002024929) y9) (or (>= (- y9 0.3800569066) y2))))) 
(and (or (<= (+ x2 0.4866337733) x10) (or (<= (+ x10 0.4373192191) x2) (or (>= (- y2 0.7002024929) y10) (or (>= (- y10 0.354189226) y2))))) 
(and (or (<= (+ x2 0.4866337733) x11) (or (<= (+ x11 0.9994732833) x2) (or (>= (- y2 0.7002024929) y11) (or (>= (- y11 0.2910857136) y2))))) 
(and (or (<= (+ x2 0.4866337733) x12) (or (<= (+ x12 0.821701974) x2) (or (>= (- y2 0.7002024929) y12) (or (>= (- y12 0.1853100134) y2))))) 
(and (or (<= (+ x2 0.4866337733) x13) (or (<= (+ x13 0.2477224238) x2) (or (>= (- y2 0.7002024929) y13) (or (>= (- y13 0.1326871634) y2))))) 
(and (or (<= (+ x2 0.4866337733) x14) (or (<= (+ x14 0.7059953162) x2) (or (>= (- y2 0.7002024929) y14) (or (>= (- y14 0.1172269743) y2))))) 
(and (or (<= (+ x3 0.7425120206) x4) (or (<= (+ x4 0.7453139448) x3) (or (>= (- y3 0.6793534341) y4) (or (>= (- y4 0.6439075417) y3))))) 
(and (or (<= (+ x3 0.7425120206) x5) (or (<= (+ x5 0.7901487555) x3) (or (>= (- y3 0.6793534341) y5) (or (>= (- y5 0.6146020887) y3))))) 
(and (or (<= (+ x3 0.7425120206) x6) (or (<= (+ x6 0.8049396856) x3) (or (>= (- y3 0.6793534341) y6) (or (>= (- y6 0.6043993329) y3))))) 
(and (or (<= (+ x3 0.7425120206) x7) (or (<= (+ x7 0.5761486042) x3) (or (>= (- y3 0.6793534341) y7) (or (>= (- y7 0.5778227613) y3))))) 
(and (or (<= (+ x3 0.7425120206) x8) (or (<= (+ x8 0.2837814833) x3) (or (>= (- y3 0.6793534341) y8) (or (>= (- y8 0.539827135) y3))))) 
(and (or (<= (+ x3 0.7425120206) x9) (or (<= (+ x9 0.3803184338) x3) (or (>= (- y3 0.6793534341) y9) (or (>= (- y9 0.3800569066) y3))))) 
(and (or (<= (+ x3 0.7425120206) x10) (or (<= (+ x10 0.4373192191) x3) (or (>= (- y3 0.6793534341) y10) (or (>= (- y10 0.354189226) y3))))) 
(and (or (<= (+ x3 0.7425120206) x11) (or (<= (+ x11 0.9994732833) x3) (or (>= (- y3 0.6793534341) y11) (or (>= (- y11 0.2910857136) y3))))) 
(and (or (<= (+ x3 0.7425120206) x12) (or (<= (+ x12 0.821701974) x3) (or (>= (- y3 0.6793534341) y12) (or (>= (- y12 0.1853100134) y3))))) 
(and (or (<= (+ x3 0.7425120206) x13) (or (<= (+ x13 0.2477224238) x3) (or (>= (- y3 0.6793534341) y13) (or (>= (- y13 0.1326871634) y3))))) 
(and (or (<= (+ x3 0.7425120206) x14) (or (<= (+ x14 0.7059953162) x3) (or (>= (- y3 0.6793534341) y14) (or (>= (- y14 0.1172269743) y3))))) 
(and (or (<= (+ x4 0.7453139448) x5) (or (<= (+ x5 0.7901487555) x4) (or (>= (- y4 0.6439075417) y5) (or (>= (- y5 0.6146020887) y4))))) 
(and (or (<= (+ x4 0.7453139448) x6) (or (<= (+ x6 0.8049396856) x4) (or (>= (- y4 0.6439075417) y6) (or (>= (- y6 0.6043993329) y4))))) 
(and (or (<= (+ x4 0.7453139448) x7) (or (<= (+ x7 0.5761486042) x4) (or (>= (- y4 0.6439075417) y7) (or (>= (- y7 0.5778227613) y4))))) 
(and (or (<= (+ x4 0.7453139448) x8) (or (<= (+ x8 0.2837814833) x4) (or (>= (- y4 0.6439075417) y8) (or (>= (- y8 0.539827135) y4))))) 
(and (or (<= (+ x4 0.7453139448) x9) (or (<= (+ x9 0.3803184338) x4) (or (>= (- y4 0.6439075417) y9) (or (>= (- y9 0.3800569066) y4))))) 
(and (or (<= (+ x4 0.7453139448) x10) (or (<= (+ x10 0.4373192191) x4) (or (>= (- y4 0.6439075417) y10) (or (>= (- y10 0.354189226) y4))))) 
(and (or (<= (+ x4 0.7453139448) x11) (or (<= (+ x11 0.9994732833) x4) (or (>= (- y4 0.6439075417) y11) (or (>= (- y11 0.2910857136) y4))))) 
(and (or (<= (+ x4 0.7453139448) x12) (or (<= (+ x12 0.821701974) x4) (or (>= (- y4 0.6439075417) y12) (or (>= (- y12 0.1853100134) y4))))) 
(and (or (<= (+ x4 0.7453139448) x13) (or (<= (+ x13 0.2477224238) x4) (or (>= (- y4 0.6439075417) y13) (or (>= (- y13 0.1326871634) y4))))) 
(and (or (<= (+ x4 0.7453139448) x14) (or (<= (+ x14 0.7059953162) x4) (or (>= (- y4 0.6439075417) y14) (or (>= (- y14 0.1172269743) y4))))) 
(and (or (<= (+ x5 0.7901487555) x6) (or (<= (+ x6 0.8049396856) x5) (or (>= (- y5 0.6146020887) y6) (or (>= (- y6 0.6043993329) y5))))) 
(and (or (<= (+ x5 0.7901487555) x7) (or (<= (+ x7 0.5761486042) x5) (or (>= (- y5 0.6146020887) y7) (or (>= (- y7 0.5778227613) y5))))) 
(and (or (<= (+ x5 0.7901487555) x8) (or (<= (+ x8 0.2837814833) x5) (or (>= (- y5 0.6146020887) y8) (or (>= (- y8 0.539827135) y5))))) 
(and (or (<= (+ x5 0.7901487555) x9) (or (<= (+ x9 0.3803184338) x5) (or (>= (- y5 0.6146020887) y9) (or (>= (- y9 0.3800569066) y5))))) 
(and (or (<= (+ x5 0.7901487555) x10) (or (<= (+ x10 0.4373192191) x5) (or (>= (- y5 0.6146020887) y10) (or (>= (- y10 0.354189226) y5))))) 
(and (or (<= (+ x5 0.7901487555) x11) (or (<= (+ x11 0.9994732833) x5) (or (>= (- y5 0.6146020887) y11) (or (>= (- y11 0.2910857136) y5))))) 
(and (or (<= (+ x5 0.7901487555) x12) (or (<= (+ x12 0.821701974) x5) (or (>= (- y5 0.6146020887) y12) (or (>= (- y12 0.1853100134) y5))))) 
(and (or (<= (+ x5 0.7901487555) x13) (or (<= (+ x13 0.2477224238) x5) (or (>= (- y5 0.6146020887) y13) (or (>= (- y13 0.1326871634) y5))))) 
(and (or (<= (+ x5 0.7901487555) x14) (or (<= (+ x14 0.7059953162) x5) (or (>= (- y5 0.6146020887) y14) (or (>= (- y14 0.1172269743) y5))))) 
(and (or (<= (+ x6 0.8049396856) x7) (or (<= (+ x7 0.5761486042) x6) (or (>= (- y6 0.6043993329) y7) (or (>= (- y7 0.5778227613) y6))))) 
(and (or (<= (+ x6 0.8049396856) x8) (or (<= (+ x8 0.2837814833) x6) (or (>= (- y6 0.6043993329) y8) (or (>= (- y8 0.539827135) y6))))) 
(and (or (<= (+ x6 0.8049396856) x9) (or (<= (+ x9 0.3803184338) x6) (or (>= (- y6 0.6043993329) y9) (or (>= (- y9 0.3800569066) y6))))) 
(and (or (<= (+ x6 0.8049396856) x10) (or (<= (+ x10 0.4373192191) x6) (or (>= (- y6 0.6043993329) y10) (or (>= (- y10 0.354189226) y6))))) 
(and (or (<= (+ x6 0.8049396856) x11) (or (<= (+ x11 0.9994732833) x6) (or (>= (- y6 0.6043993329) y11) (or (>= (- y11 0.2910857136) y6))))) 
(and (or (<= (+ x6 0.8049396856) x12) (or (<= (+ x12 0.821701974) x6) (or (>= (- y6 0.6043993329) y12) (or (>= (- y12 0.1853100134) y6))))) 
(and (or (<= (+ x6 0.8049396856) x13) (or (<= (+ x13 0.2477224238) x6) (or (>= (- y6 0.6043993329) y13) (or (>= (- y13 0.1326871634) y6))))) 
(and (or (<= (+ x6 0.8049396856) x14) (or (<= (+ x14 0.7059953162) x6) (or (>= (- y6 0.6043993329) y14) (or (>= (- y14 0.1172269743) y6))))) 
(and (or (<= (+ x7 0.5761486042) x8) (or (<= (+ x8 0.2837814833) x7) (or (>= (- y7 0.5778227613) y8) (or (>= (- y8 0.539827135) y7))))) 
(and (or (<= (+ x7 0.5761486042) x9) (or (<= (+ x9 0.3803184338) x7) (or (>= (- y7 0.5778227613) y9) (or (>= (- y9 0.3800569066) y7))))) 
(and (or (<= (+ x7 0.5761486042) x10) (or (<= (+ x10 0.4373192191) x7) (or (>= (- y7 0.5778227613) y10) (or (>= (- y10 0.354189226) y7))))) 
(and (or (<= (+ x7 0.5761486042) x11) (or (<= (+ x11 0.9994732833) x7) (or (>= (- y7 0.5778227613) y11) (or (>= (- y11 0.2910857136) y7))))) 
(and (or (<= (+ x7 0.5761486042) x12) (or (<= (+ x12 0.821701974) x7) (or (>= (- y7 0.5778227613) y12) (or (>= (- y12 0.1853100134) y7))))) 
(and (or (<= (+ x7 0.5761486042) x13) (or (<= (+ x13 0.2477224238) x7) (or (>= (- y7 0.5778227613) y13) (or (>= (- y13 0.1326871634) y7))))) 
(and (or (<= (+ x7 0.5761486042) x14) (or (<= (+ x14 0.7059953162) x7) (or (>= (- y7 0.5778227613) y14) (or (>= (- y14 0.1172269743) y7))))) 
(and (or (<= (+ x8 0.2837814833) x9) (or (<= (+ x9 0.3803184338) x8) (or (>= (- y8 0.539827135) y9) (or (>= (- y9 0.3800569066) y8))))) 
(and (or (<= (+ x8 0.2837814833) x10) (or (<= (+ x10 0.4373192191) x8) (or (>= (- y8 0.539827135) y10) (or (>= (- y10 0.354189226) y8))))) 
(and (or (<= (+ x8 0.2837814833) x11) (or (<= (+ x11 0.9994732833) x8) (or (>= (- y8 0.539827135) y11) (or (>= (- y11 0.2910857136) y8))))) 
(and (or (<= (+ x8 0.2837814833) x12) (or (<= (+ x12 0.821701974) x8) (or (>= (- y8 0.539827135) y12) (or (>= (- y12 0.1853100134) y8))))) 
(and (or (<= (+ x8 0.2837814833) x13) (or (<= (+ x13 0.2477224238) x8) (or (>= (- y8 0.539827135) y13) (or (>= (- y13 0.1326871634) y8))))) 
(and (or (<= (+ x8 0.2837814833) x14) (or (<= (+ x14 0.7059953162) x8) (or (>= (- y8 0.539827135) y14) (or (>= (- y14 0.1172269743) y8))))) 
(and (or (<= (+ x9 0.3803184338) x10) (or (<= (+ x10 0.4373192191) x9) (or (>= (- y9 0.3800569066) y10) (or (>= (- y10 0.354189226) y9))))) 
(and (or (<= (+ x9 0.3803184338) x11) (or (<= (+ x11 0.9994732833) x9) (or (>= (- y9 0.3800569066) y11) (or (>= (- y11 0.2910857136) y9))))) 
(and (or (<= (+ x9 0.3803184338) x12) (or (<= (+ x12 0.821701974) x9) (or (>= (- y9 0.3800569066) y12) (or (>= (- y12 0.1853100134) y9))))) 
(and (or (<= (+ x9 0.3803184338) x13) (or (<= (+ x13 0.2477224238) x9) (or (>= (- y9 0.3800569066) y13) (or (>= (- y13 0.1326871634) y9))))) 
(and (or (<= (+ x9 0.3803184338) x14) (or (<= (+ x14 0.7059953162) x9) (or (>= (- y9 0.3800569066) y14) (or (>= (- y14 0.1172269743) y9))))) 
(and (or (<= (+ x10 0.4373192191) x11) (or (<= (+ x11 0.9994732833) x10) (or (>= (- y10 0.354189226) y11) (or (>= (- y11 0.2910857136) y10))))) 
(and (or (<= (+ x10 0.4373192191) x12) (or (<= (+ x12 0.821701974) x10) (or (>= (- y10 0.354189226) y12) (or (>= (- y12 0.1853100134) y10))))) 
(and (or (<= (+ x10 0.4373192191) x13) (or (<= (+ x13 0.2477224238) x10) (or (>= (- y10 0.354189226) y13) (or (>= (- y13 0.1326871634) y10))))) 
(and (or (<= (+ x10 0.4373192191) x14) (or (<= (+ x14 0.7059953162) x10) (or (>= (- y10 0.354189226) y14) (or (>= (- y14 0.1172269743) y10))))) 
(and (or (<= (+ x11 0.9994732833) x12) (or (<= (+ x12 0.821701974) x11) (or (>= (- y11 0.2910857136) y12) (or (>= (- y12 0.1853100134) y11))))) 
(and (or (<= (+ x11 0.9994732833) x13) (or (<= (+ x13 0.2477224238) x11) (or (>= (- y11 0.2910857136) y13) (or (>= (- y13 0.1326871634) y11))))) 
(and (or (<= (+ x11 0.9994732833) x14) (or (<= (+ x14 0.7059953162) x11) (or (>= (- y11 0.2910857136) y14) (or (>= (- y14 0.1172269743) y11))))) 
(and (or (<= (+ x12 0.821701974) x13) (or (<= (+ x13 0.2477224238) x12) (or (>= (- y12 0.1853100134) y13) (or (>= (- y13 0.1326871634) y12))))) 
(and (or (<= (+ x12 0.821701974) x14) (or (<= (+ x14 0.7059953162) x12) (or (>= (- y12 0.1853100134) y14) (or (>= (- y14 0.1172269743) y12))))) 
(and (or (<= (+ x13 0.2477224238) x14) (or (<= (+ x14 0.7059953162) x13) (or (>= (- y13 0.1326871634) y14) (or (>= (- y14 0.1172269743) y13))))) )))))))))))))))))))))))))))))))))))))))))))))))))))))))))))))))))))))))))))))))))))))))))))))))))))))))))))))))))))))))))))))))))))))))))))))))))))))))))))))))))))))))))))))))))))))))))))))))))))))))))))))))))))))))
(minimize c)
(check-sat)
(get-objectives)
(exit)
